# 79809
param n := 30;
param s := 1;
set E :=  (0,16) (0,22) (1,29) (2,15) (2,16) (3,13) (4,20) (5,22) (6,12) (6,13) (7,13) (7,26) (8,19) (8,28) (9,13) (9,25) (10,22) (11,22) (12,14) (15,18) (15,20) (15,27) (15,29) (16,17) (16,18) (17,19) (19,23) (20,25) (21,28) (23,24);
